141758
86, 25, 45, 2, 73, 48, 85, 36, 71, 54, 95, 67, 41, 11, 104, 38, 105, 101, 70, 94, 78, 3, 96, 60, 91, 15, 79, 43, 1, 87, 27, 44, 66, 59, 10, 28, 58, 76, 24, 102, 74, 83, 57, 80, 89, 93, 12, 23, 92, 9, 34, 26, 50, 14, 47, 61, 4, 103, 35, 75, 32, 63, 84, 53, 7, 18, 49, 37, 39, 33, 72, 82, 51, 100, 99, 68, 81, 19, 42, 106, 8, 97, 55, 29, 30, 5, 52, 65, 31, 98, 88, 13, 69, 6, 40, 56, 20, 16, 90, 64, 17, 21, 22, 62, 46, 77
